12 16 6 10
4 2 15 17 13 16 4 10 9 3 20 8 12 3 2 16 
2.44 6.42 4.26 4.85 7.8 1.53 3.15 5.82 1.23 4.16 1.19 5.97 3.29 7.87 0.91 1.92 
5.7 0.91 7.56 4.62 2.67 1.78 3.53 2.73 3.32 7.98 4.66 0.11 5.77 4.15 1.7 0.38 
0.76 3.85 5.19 2.59 7.07 7.44 0.18 1.94 6.87 6.23 5.86 3.18 5.53 5.27 3.59 7.87 
5.34 6.24 4.52 4.55 0.88 6.76 7.34 1.88 7.8 6.15 3.47 3.52 6.79 7.5 5.53 4.86 
6.42 6.96 6.76 6.87 7.91 3.02 1.95 1.78 4.56 3.31 3.43 5.95 4.48 7.9 7.68 4.81 
3.51 3.72 4.26 5.2 1.47 1.08 7.77 4.48 7.73 0.08 4.96 3.49 5.56 0.79 7.17 7.71 
4 4 4 4 4 4 4 4 4 4 4 4 4 4 4 4 
4.3 0.09 0.53 3.6 7.55 5.73 0.92 6.92 0.89 6.26 2.96 2.32 2.27 6.48 7.61 6.97 
4.53 4.41 2.39 1.83 0.09 0.85 2.5 3.32 2.79 3.38 2.48 3.97 6.17 0.98 1.9 0.34 
1.6 6.25 6.5 7.35 4.46 7.65 7.69 0.13 6.06 4.72 2.09 6.43 6.17 6.28 1.77 5.99 
3.95 6.38 1.77 5.63 2.97 6.91 6.7 6.74 6.98 6.15 6.48 4.41 3.55 1.25 4.49 4.04 
1.38 1.96 6.83 6.67 1.08 7.12 3.7 1.35 4.49 4.3 6.18 0.85 3.85 5.68 0.34 2.87 
1 1 1 1 1 1 1 1 1 1 1 1 1 1 1 1 
1 1 1 1 1 1 1 1 1 1 1 1 1 1 1 1 
1 1 1 1 1 1 1 1 1 1 1 1 1 1 1 1 
1 1 1 1 1 1 1 1 1 1 1 1 1 1 1 1 
1 1 1 1 1 1 1 1 1 1 1 1 1 1 1 1 
1 1 1 1 1 1 1 1 1 1 1 1 1 1 1 1 
1 1 1 1 1 1 1 1 1 1 1 1 1 1 1 1 
1 1 1 1 1 1 1 1 1 1 1 1 1 1 1 1 
1 1 1 1 1 1 1 1 1 1 1 1 1 1 1 1 
1 1 1 1 1 1 1 1 1 1 1 1 1 1 1 1 
1 1 1 1 1 1 1 1 1 1 1 1 1 1 1 1 
1 1 1 1 1 1 1 1 1 1 1 1 1 1 1 1 
0.01 0.01 0.01 0.01 0.01 0.01 0.01 0.01 0.01 0.01 0.01 0.01 0.01 0.01 0.01 0.01 
0.02 0.02 0.02 0.02 0.02 0.02 0.02 0.02 0.02 0.02 0.02 0.02 0.02 0.02 0.02 0.02 
0.03 0.03 0.03 0.03 0.03 0.03 0.03 0.03 0.03 0.03 0.03 0.03 0.03 0.03 0.03 0.03 
0.04 0.04 0.04 0.04 0.04 0.04 0.04 0.04 0.04 0.04 0.04 0.04 0.04 0.04 0.04 0.04 
0.05 0.05 0.05 0.05 0.05 0.05 0.05 0.05 0.05 0.05 0.05 0.05 0.05 0.05 0.05 0.05 
0.06 0.06 0.06 0.06 0.06 0.06 0.06 0.06 0.06 0.06 0.06 0.06 0.06 0.06 0.06 0.06 
0.07 0.07 0.07 0.07 0.07 0.07 0.07 0.07 0.07 0.07 0.07 0.07 0.07 0.07 0.07 0.07 
0.2 0.2 0.2 0.2 0.2 0.2 0.2 0.2 0.2 0.2 0.2 0.2 0.2 0.2 0.2 0.2 
0.4 0.4 0.4 0.4 0.4 0.4 0.4 0.4 0.4 0.4 0.4 0.4 0.4 0.4 0.4 0.4 
0.6 0.6 0.6 0.6 0.6 0.6 0.6 0.6 0.6 0.6 0.6 0.6 0.6 0.6 0.6 0.6 
0.8 0.8 0.8 0.8 0.8 0.8 0.8 0.8 0.8 0.8 0.8 0.8 0.8 0.8 0.8 0.8 
1 1 1 1 1 1 1 1 1 1 1 1 1 1 1 1 
